(set-logic HORN)
(declare-fun inv ((_ BitVec 64) (_ BitVec 64) (_ BitVec 64) (_ BitVec 64) ) Bool)
(assert (forall ((n (_ BitVec 64)) (s (_ BitVec 64)) (i (_ BitVec 64)) (j (_ BitVec 64))) 
       (=> ( and ( bvsle (_ bv1 64) n ) ( bvsle n (_ bv1000 64) ) ( = s (_ bv0 64) ) ( = j (_ bv0 64) ) ( = i (_ bv1 64) ) ) (inv n s i j))))
(assert (forall ((n (_ BitVec 64)) (s (_ BitVec 64)) (i (_ BitVec 64)) (j (_ BitVec 64)) (n! (_ BitVec 64)) (s! (_ BitVec 64)) (i! (_ BitVec 64)) (j! (_ BitVec 64))) 
       (=> (and (inv n s i j) ( and ( bvsle i n ) ( = s! ( bvadd s i ) ) ( = j! i ) ( = i! ( bvadd i (_ bv1 64) ) ) ( = n! n ) )) (inv n! s! i! j!))))
(assert (forall ((n (_ BitVec 64)) (s (_ BitVec 64)) (i (_ BitVec 64)) (j (_ BitVec 64))) 
       (=> (inv n s i j) ( or ( bvsle i n ) ( = ( bvmul (_ bv2 64) s ) ( bvmul n ( bvadd n (_ bv1 64) ) ) ) ))))
(check-sat)
